HUN,8,6,773
0,4,1,16,2,24,5,30,3,21,4,15
1,29,0,22,2,28,5,17,3,24,4,7
0,27,2,1,1,23,5,26,3,9,4,25
1,2,0,19,2,7,4,25,3,29,5,12
1,12,2,8,0,2,4,29,5,12,3,20
1,20,0,29,2,17,5,25,4,25,3,23
2,11,1,30,0,29,3,26,5,10,4,17
1,27,0,13,2,16,5,20,4,26,3,23
